(set-info :smt-lib-version 2.6)
(set-logic UF)
(set-info :source |Benchmarks from the paper: "Extending Sledgehammer with SMT Solvers" by Jasmin Blanchette, Sascha Bohme, and Lawrence C. Paulson, CADE 2011.  Translated to SMT2 by Andrew Reynolds and Morgan Deters.|)
(set-info :category "industrial")
(set-info :status unknown)
(declare-sort S1 0)
(declare-sort S2 0)
(declare-sort S3 0)
(declare-sort S4 0)
(declare-sort S5 0)
(declare-sort S6 0)
(declare-sort S7 0)
(declare-sort S8 0)
(declare-sort S9 0)
(declare-sort S10 0)
(declare-sort S11 0)
(declare-sort S12 0)
(declare-sort S13 0)
(declare-sort S14 0)
(declare-sort S15 0)
(declare-sort S16 0)
(declare-sort S17 0)
(declare-sort S18 0)
(declare-sort S19 0)
(declare-sort S20 0)
(declare-sort S21 0)
(declare-sort S22 0)
(declare-sort S23 0)
(declare-sort S24 0)
(declare-sort S25 0)
(declare-sort S26 0)
(declare-sort S27 0)
(declare-sort S28 0)
(declare-sort S29 0)
(declare-sort S30 0)
(declare-sort S31 0)
(declare-sort S32 0)
(declare-sort S33 0)
(declare-sort S34 0)
(declare-sort S35 0)
(declare-sort S36 0)
(declare-sort S37 0)
(declare-sort S38 0)
(declare-sort S39 0)
(declare-sort S40 0)
(declare-sort S41 0)
(declare-sort S42 0)
(declare-sort S43 0)
(declare-sort S44 0)
(declare-sort S45 0)
(declare-sort S46 0)
(declare-sort S47 0)
(declare-sort S48 0)
(declare-sort S49 0)
(declare-sort S50 0)
(declare-sort S51 0)
(declare-sort S52 0)
(declare-sort S53 0)
(declare-sort S54 0)
(declare-sort S55 0)
(declare-sort S56 0)
(declare-sort S57 0)
(declare-fun f1 () S1)
(declare-fun f2 () S1)
(declare-fun f3 (S2 S3) S1)
(declare-fun f4 (S4 S5) S2)
(declare-fun f5 (S6 S7) S4)
(declare-fun f6 (S8 S7) S6)
(declare-fun f7 () S8)
(declare-fun f8 () S7)
(declare-fun f9 () S7)
(declare-fun f10 (S9 S5) S5)
(declare-fun f11 (S10 S11) S9)
(declare-fun f12 () S10)
(declare-fun f13 () S11)
(declare-fun f14 (S12 S5) S9)
(declare-fun f15 () S12)
(declare-fun f16 (S13 S11) S5)
(declare-fun f17 () S13)
(declare-fun f18 () S11)
(declare-fun f19 (S14) S3)
(declare-fun f20 (S15 S14) S14)
(declare-fun f21 (S16 S2) S15)
(declare-fun f22 () S16)
(declare-fun f23 () S7)
(declare-fun f24 () S7)
(declare-fun f25 () S11)
(declare-fun f26 () S11)
(declare-fun f27 () S7)
(declare-fun f28 () S7)
(declare-fun f29 () S11)
(declare-fun f30 () S11)
(declare-fun f31 () S7)
(declare-fun f32 () S7)
(declare-fun f33 () S5)
(declare-fun f34 () S7)
(declare-fun f35 () S7)
(declare-fun f36 (S17 S7) S11)
(declare-fun f37 () S17)
(declare-fun f38 () S11)
(declare-fun f39 (S18 S7) S5)
(declare-fun f40 () S18)
(declare-fun f41 () S7)
(declare-fun f42 () S13)
(declare-fun f43 () S11)
(declare-fun f44 () S7)
(declare-fun f45 () S7)
(declare-fun f46 () S11)
(declare-fun f47 () S14)
(declare-fun f48 (S5 S19) S1)
(declare-fun f49 (S14) S19)
(declare-fun f50 (S11 S20) S1)
(declare-fun f51 () S20)
(declare-fun f52 (S14) S1)
(declare-fun f53 (S14 S21) S1)
(declare-fun f54 () S21)
(declare-fun f55 () S6)
(declare-fun f56 () S7)
(declare-fun f57 () S23)
(declare-fun f58 (S24 S23) S23)
(declare-fun f59 (S25 S22) S24)
(declare-fun f60 () S25)
(declare-fun f61 () S22)
(declare-fun f62 (S27 S22) S22)
(declare-fun f63 (S28 S26) S27)
(declare-fun f64 () S28)
(declare-fun f65 () S29)
(declare-fun f66 (S30 S29) S29)
(declare-fun f67 (S31 S5) S30)
(declare-fun f68 () S31)
(declare-fun f69 () S32)
(declare-fun f70 (S33 S32) S32)
(declare-fun f71 (S34 S11) S33)
(declare-fun f72 () S34)
(declare-fun f73 () S35)
(declare-fun f74 (S36 S35) S35)
(declare-fun f75 (S37 S14) S36)
(declare-fun f76 () S37)
(declare-fun f77 () S38)
(declare-fun f78 (S39 S38) S38)
(declare-fun f79 (S40 S7) S39)
(declare-fun f80 () S40)
(declare-fun f81 (S7 S41) S1)
(declare-fun f82 (S38) S41)
(declare-fun f83 (S35) S21)
(declare-fun f84 (S32) S20)
(declare-fun f85 (S29) S19)
(declare-fun f86 (S26 S42) S1)
(declare-fun f87 (S22) S42)
(declare-fun f88 (S22 S43) S1)
(declare-fun f89 (S23) S43)
(declare-fun f90 (S7) S19)
(declare-fun f91 (S19 S5) S1)
(declare-fun f92 (S19) S19)
(declare-fun f93 (S41 S7) S1)
(declare-fun f94 (S21 S14) S1)
(declare-fun f95 (S20 S11) S1)
(declare-fun f96 (S3 S2) S1)
(declare-fun f97 (S43 S22) S1)
(declare-fun f98 (S42 S26) S1)
(declare-fun f99 (S44 S23) S24)
(declare-fun f100 () S44)
(declare-fun f101 (S45 S22) S27)
(declare-fun f102 () S45)
(declare-fun f103 (S46 S14) S15)
(declare-fun f104 () S46)
(declare-fun f105 (S47 S29) S30)
(declare-fun f106 () S47)
(declare-fun f107 (S48 S32) S33)
(declare-fun f108 () S48)
(declare-fun f109 (S49 S35) S36)
(declare-fun f110 () S49)
(declare-fun f111 (S50 S38) S39)
(declare-fun f112 () S50)
(declare-fun f113 () S25)
(declare-fun f114 () S28)
(declare-fun f115 () S16)
(declare-fun f116 () S31)
(declare-fun f117 () S34)
(declare-fun f118 () S37)
(declare-fun f119 () S40)
(declare-fun f120 (S51 S23) S1)
(declare-fun f121 (S52 S29) S1)
(declare-fun f122 (S53 S32) S1)
(declare-fun f123 (S54 S35) S1)
(declare-fun f124 (S55 S38) S1)
(declare-fun f125 (S56 S14) S19)
(declare-fun f126 (S7) S56)
(declare-fun f127 () S41)
(declare-fun f128 () S6)
(declare-fun f129 (S57 S19) S19)
(declare-fun f130 (S5) S57)
(declare-fun f131 (S19) S19)
(declare-fun f132 (S19 S19) S1)
(assert (not (= f1 f2)))
(assert (let ((?v_0 (f16 f17 f18)) (?v_1 (f16 f17 f26)) (?v_2 (f14 f15 (f16 f42 f43)))) (not (= (f3 (f4 (f5 (f6 f7 f8) f9) (f10 (f11 f12 f13) (f10 (f14 f15 ?v_0) ?v_0))) (f19 (f20 (f21 f22 (f4 (f5 (f6 f7 f23) f24) (f10 (f11 f12 f25) (f10 (f14 f15 ?v_1) ?v_1)))) (f20 (f21 f22 (f4 (f5 (f6 f7 f27) f28) (f10 (f11 f12 f29) (f16 f17 f30)))) (f20 (f21 f22 (f4 (f5 (f6 f7 f31) f32) f33)) (f20 (f21 f22 (f4 (f5 (f6 f7 f34) f35) (f10 (f11 f12 (f36 f37 f35)) (f10 (f14 f15 (f16 f17 f38)) (f10 (f14 f15 (f39 f40 f41)) (f10 ?v_2 (f10 (f11 f12 (f36 f37 f41)) (f10 ?v_2 (f39 f40 f35))))))))) (f20 (f21 f22 (f4 (f5 (f6 f7 f44) f34) (f10 (f14 f15 (f39 f40 f44)) (f10 (f14 f15 (f39 f40 f45)) (f16 f17 f46))))) f47))))))) f1))))
(assert (not (= f8 f34)))
(assert (not (= (f48 (f16 f42 f13) (f49 f47)) f1)))
(assert (= (f50 f13 f51) f1))
(assert (forall ((?v0 S7) (?v1 S14)) (= (f48 (f16 f42 (f36 f37 ?v0)) (f49 ?v1)) f1)))
(assert (forall ((?v0 S7)) (= (f50 (f36 f37 ?v0) f51) f1)))
(assert (forall ((?v0 S14) (?v1 S11) (?v2 S7) (?v3 S7) (?v4 S7) (?v5 S11)) (let ((?v_2 (f16 f42 ?v1)) (?v_4 (f39 f40 ?v3)) (?v_1 (f14 f15 (f39 f40 ?v4))) (?v_0 (f16 f17 ?v5))) (let ((?v_3 (f14 f15 ?v_2))) (=> (= (f52 ?v0) f1) (=> (not (= (f48 ?v_2 (f49 ?v0)) f1)) (=> (= (f50 ?v1 f51) f1) (=> (= (f3 (f4 (f5 (f6 f7 ?v2) f34) (f10 (f14 f15 ?v_4) (f10 ?v_1 ?v_0))) (f19 ?v0)) f1) (= (f52 (f20 (f21 f22 (f4 (f5 (f6 f7 f34) ?v3) (f10 (f11 f12 (f36 f37 ?v3)) (f10 (f14 f15 ?v_0) (f10 ?v_1 (f10 ?v_3 (f10 (f11 f12 (f36 f37 ?v4)) (f10 ?v_3 ?v_4)))))))) ?v0)) f1)))))))))
(assert (forall ((?v0 S14) (?v1 S11) (?v2 S7) (?v3 S7) (?v4 S7) (?v5 S11)) (let ((?v_2 (f16 f42 ?v1)) (?v_4 (f39 f40 ?v3)) (?v_1 (f14 f15 (f39 f40 ?v4))) (?v_0 (f16 f17 ?v5))) (let ((?v_3 (f14 f15 ?v_2))) (=> (= (f53 ?v0 f54) f1) (=> (not (= (f48 ?v_2 (f49 ?v0)) f1)) (=> (= (f50 ?v1 f51) f1) (=> (= (f3 (f4 (f5 (f6 f7 ?v2) f34) (f10 (f14 f15 ?v_4) (f10 ?v_1 ?v_0))) (f19 ?v0)) f1) (= (f53 (f20 (f21 f22 (f4 (f5 (f6 f7 f34) ?v3) (f10 (f11 f12 (f36 f37 ?v3)) (f10 (f14 f15 ?v_0) (f10 ?v_1 (f10 ?v_3 (f10 (f11 f12 (f36 f37 ?v4)) (f10 ?v_3 ?v_4)))))))) ?v0) f54) f1)))))))))
(assert (forall ((?v0 S5) (?v1 S5) (?v2 S14)) (let ((?v_0 (f49 ?v2))) (=> (= (f48 (f10 (f14 f15 ?v0) ?v1) ?v_0) f1) (=> (=> (= (f48 ?v0 ?v_0) f1) (=> (= (f48 ?v1 ?v_0) f1) false)) false)))))
(assert (forall ((?v0 S14) (?v1 S11) (?v2 S11) (?v3 S7) (?v4 S7) (?v5 S7)) (let ((?v_0 (f16 f17 ?v1))) (=> (= (f52 ?v0) f1) (=> (not (= (f48 ?v_0 (f49 ?v0)) f1)) (=> (= (f50 ?v2 f51) f1) (=> (= (f3 (f4 (f5 (f6 f7 ?v3) ?v4) (f10 (f11 f12 (f36 f37 ?v4)) (f10 (f14 f15 (f16 f42 ?v2)) (f39 f40 ?v5)))) (f19 ?v0)) f1) (= (f52 (f20 (f21 f22 (f4 (f5 (f6 f7 ?v4) ?v5) (f10 (f11 f12 ?v2) ?v_0))) ?v0)) f1))))))))
(assert (forall ((?v0 S14) (?v1 S11) (?v2 S11) (?v3 S7) (?v4 S7) (?v5 S7)) (let ((?v_0 (f16 f17 ?v1))) (=> (= (f53 ?v0 f54) f1) (=> (not (= (f48 ?v_0 (f49 ?v0)) f1)) (=> (= (f50 ?v2 f51) f1) (=> (= (f3 (f4 (f5 (f6 f7 ?v3) ?v4) (f10 (f11 f12 (f36 f37 ?v4)) (f10 (f14 f15 (f16 f42 ?v2)) (f39 f40 ?v5)))) (f19 ?v0)) f1) (= (f53 (f20 (f21 f22 (f4 (f5 (f6 f7 ?v4) ?v5) (f10 (f11 f12 ?v2) ?v_0))) ?v0) f54) f1))))))))
(assert (forall ((?v0 S14) (?v1 S11) (?v2 S7) (?v3 S7) (?v4 S11) (?v5 S7) (?v6 S11) (?v7 S7) (?v8 S5)) (let ((?v_1 (f11 f12 ?v1)) (?v_2 (f16 f17 ?v4)) (?v_0 (f19 ?v0))) (=> (= (f52 ?v0) f1) (=> (= (f50 ?v1 f51) f1) (=> (= (f3 (f4 (f5 (f6 f7 ?v2) ?v3) (f10 ?v_1 ?v_2)) ?v_0) f1) (=> (= (f3 (f4 (f5 (f6 f7 ?v5) ?v3) (f10 (f11 f12 (f36 f37 ?v3)) (f10 (f14 f15 (f16 f17 ?v6)) (f10 (f14 f15 (f39 f40 ?v7)) (f10 (f14 f15 (f16 f42 ?v1)) ?v8))))) ?v_0) f1) (= (f52 (f20 (f21 f22 (f4 (f5 (f6 f7 ?v3) ?v7) (f10 ?v_1 (f10 (f14 f15 ?v_2) ?v_2)))) ?v0)) f1))))))))
(assert (forall ((?v0 S14) (?v1 S11) (?v2 S7) (?v3 S7) (?v4 S11) (?v5 S7) (?v6 S11) (?v7 S7) (?v8 S5)) (let ((?v_1 (f11 f12 ?v1)) (?v_2 (f16 f17 ?v4)) (?v_0 (f19 ?v0))) (=> (= (f53 ?v0 f54) f1) (=> (= (f50 ?v1 f51) f1) (=> (= (f3 (f4 (f5 (f6 f7 ?v2) ?v3) (f10 ?v_1 ?v_2)) ?v_0) f1) (=> (= (f3 (f4 (f5 (f6 f7 ?v5) ?v3) (f10 (f11 f12 (f36 f37 ?v3)) (f10 (f14 f15 (f16 f17 ?v6)) (f10 (f14 f15 (f39 f40 ?v7)) (f10 (f14 f15 (f16 f42 ?v1)) ?v8))))) ?v_0) f1) (= (f53 (f20 (f21 f22 (f4 (f5 (f6 f7 ?v3) ?v7) (f10 ?v_1 (f10 (f14 f15 ?v_2) ?v_2)))) ?v0) f54) f1))))))))
(assert (forall ((?v0 S14) (?v1 S7) (?v2 S7) (?v3 S11) (?v4 S7) (?v5 S11) (?v6 S5)) (let ((?v_1 (f16 f17 ?v3)) (?v_0 (f14 f15 (f39 f40 ?v4))) (?v_2 (f19 ?v0)) (?v_3 (f6 f7 ?v1))) (=> (= (f52 ?v0) f1) (=> (not (= ?v1 f34)) (=> (= (f3 (f4 (f5 (f6 f7 ?v2) ?v1) (f10 (f11 f12 (f36 f37 ?v1)) (f10 (f14 f15 ?v_1) (f10 ?v_0 (f10 (f14 f15 (f16 f42 ?v5)) ?v6))))) ?v_2) f1) (=> (= (f3 (f4 (f5 ?v_3 f34) (f10 (f14 f15 (f39 f40 ?v1)) (f10 ?v_0 ?v_1))) ?v_2) f1) (= (f52 (f20 (f21 f22 (f4 (f5 ?v_3 ?v4) ?v6)) ?v0)) f1))))))))
(assert (forall ((?v0 S14) (?v1 S7) (?v2 S7) (?v3 S11) (?v4 S7) (?v5 S11) (?v6 S5)) (let ((?v_1 (f16 f17 ?v3)) (?v_0 (f14 f15 (f39 f40 ?v4))) (?v_2 (f19 ?v0)) (?v_3 (f6 f7 ?v1))) (=> (= (f53 ?v0 f54) f1) (=> (not (= ?v1 f34)) (=> (= (f3 (f4 (f5 (f6 f7 ?v2) ?v1) (f10 (f11 f12 (f36 f37 ?v1)) (f10 (f14 f15 ?v_1) (f10 ?v_0 (f10 (f14 f15 (f16 f42 ?v5)) ?v6))))) ?v_2) f1) (=> (= (f3 (f4 (f5 ?v_3 f34) (f10 (f14 f15 (f39 f40 ?v1)) (f10 ?v_0 ?v_1))) ?v_2) f1) (= (f53 (f20 (f21 f22 (f4 (f5 ?v_3 ?v4) ?v6)) ?v0) f54) f1))))))))
(assert (forall ((?v0 S11)) (not (= (f48 (f16 f17 ?v0) (f49 f47)) f1))))
(assert (forall ((?v0 S14)) (= (= (f52 ?v0) f1) (= (f53 ?v0 f54) f1))))
(assert (= (f53 f47 f54) f1))
(assert (= (f52 f47) f1))
(assert (forall ((?v0 S7) (?v1 S7)) (= (= (f36 f37 ?v0) (f36 f37 ?v1)) (= ?v0 ?v1))))
(assert (forall ((?v0 S11) (?v1 S11)) (=> (not (= (= (f50 ?v0 f51) f1) (= (f50 ?v1 f51) f1))) (not (= ?v0 ?v1)))))
(assert (forall ((?v0 S5) (?v1 S5) (?v2 S14)) (let ((?v_0 (f49 ?v2))) (=> (= (f48 (f10 (f14 f15 ?v0) ?v1) ?v_0) f1) (and (= (f48 ?v0 ?v_0) f1) (= (f48 ?v1 ?v_0) f1))))))
(assert (forall ((?v0 S11) (?v1 S14) (?v2 S7)) (=> (not (= (f48 (f16 f42 ?v0) (f49 ?v1)) f1)) (not (= (f36 f37 ?v2) ?v0)))))
(assert (forall ((?v0 S11) (?v1 S14) (?v2 S7)) (=> (not (= (f48 (f16 f42 ?v0) (f49 ?v1)) f1)) (not (= ?v0 (f36 f37 ?v2))))))
(assert (forall ((?v0 S14) (?v1 S11) (?v2 S7) (?v3 S7)) (let ((?v_0 (f16 f17 ?v1))) (=> (= (f53 ?v0 f54) f1) (=> (not (= (f48 ?v_0 (f49 ?v0)) f1)) (= (f53 (f20 (f21 f22 (f4 (f5 (f6 f7 ?v2) f34) (f10 (f14 f15 (f39 f40 ?v2)) (f10 (f14 f15 (f39 f40 ?v3)) ?v_0)))) ?v0) f54) f1))))))
(assert (forall ((?v0 S14) (?v1 S11) (?v2 S7) (?v3 S7)) (let ((?v_0 (f16 f17 ?v1))) (=> (= (f52 ?v0) f1) (=> (not (= (f48 ?v_0 (f49 ?v0)) f1)) (= (f52 (f20 (f21 f22 (f4 (f5 (f6 f7 ?v2) f34) (f10 (f14 f15 (f39 f40 ?v2)) (f10 (f14 f15 (f39 f40 ?v3)) ?v_0)))) ?v0)) f1))))))
(assert (forall ((?v0 S11) (?v1 S5)) (not (= (f48 (f10 (f11 f12 ?v0) ?v1) (f49 f47)) f1))))
(assert (forall ((?v0 S7) (?v1 S7) (?v2 S5) (?v3 S14)) (=> (= (f3 (f4 (f5 (f6 f7 ?v0) ?v1) ?v2) (f19 ?v3)) f1) (= (f48 ?v2 (f49 ?v3)) f1))))
(assert (forall ((?v0 S14)) (exists ((?v1 S11)) (not (= (f48 (f16 f17 ?v1) (f49 ?v0)) f1)))))
(assert (forall ((?v0 S11) (?v1 S7)) (not (= (f16 f17 ?v0) (f39 f40 ?v1)))))
(assert (forall ((?v0 S7) (?v1 S11)) (not (= (f39 f40 ?v0) (f16 f17 ?v1)))))
(assert (forall ((?v0 S11) (?v1 S5) (?v2 S7)) (not (= (f10 (f11 f12 ?v0) ?v1) (f39 f40 ?v2)))))
(assert (forall ((?v0 S7) (?v1 S11) (?v2 S5)) (not (= (f39 f40 ?v0) (f10 (f11 f12 ?v1) ?v2)))))
(assert (forall ((?v0 S5) (?v1 S5) (?v2 S7)) (not (= (f10 (f14 f15 ?v0) ?v1) (f39 f40 ?v2)))))
(assert (forall ((?v0 S7) (?v1 S5) (?v2 S5)) (not (= (f39 f40 ?v0) (f10 (f14 f15 ?v1) ?v2)))))
(assert (forall ((?v0 S7) (?v1 S11)) (not (= (f39 f40 ?v0) (f16 f42 ?v1)))))
(assert (forall ((?v0 S11) (?v1 S7)) (not (= (f16 f42 ?v0) (f39 f40 ?v1)))))
(assert (forall ((?v0 S11) (?v1 S5) (?v2 S11)) (not (= (f10 (f11 f12 ?v0) ?v1) (f16 f17 ?v2)))))
(assert (forall ((?v0 S11) (?v1 S11)) (= (= (f16 f42 ?v0) (f16 f42 ?v1)) (= ?v0 ?v1))))
(assert (forall ((?v0 S5) (?v1 S5) (?v2 S5) (?v3 S5)) (= (= (f10 (f14 f15 ?v0) ?v1) (f10 (f14 f15 ?v2) ?v3)) (and (= ?v0 ?v2) (= ?v1 ?v3)))))
(assert (forall ((?v0 S11) (?v1 S5) (?v2 S11) (?v3 S5)) (= (= (f10 (f11 f12 ?v0) ?v1) (f10 (f11 f12 ?v2) ?v3)) (and (= ?v0 ?v2) (= ?v1 ?v3)))))
(assert (forall ((?v0 S11) (?v1 S11)) (= (= (f16 f17 ?v0) (f16 f17 ?v1)) (= ?v0 ?v1))))
(assert (forall ((?v0 S7) (?v1 S7)) (= (= (f39 f40 ?v0) (f39 f40 ?v1)) (= ?v0 ?v1))))
(assert (forall ((?v0 S7) (?v1 S7) (?v2 S5) (?v3 S7) (?v4 S7) (?v5 S5)) (= (= (f4 (f5 (f6 f7 ?v0) ?v1) ?v2) (f4 (f5 (f6 f7 ?v3) ?v4) ?v5)) (and (= ?v0 ?v3) (and (= ?v1 ?v4) (= ?v2 ?v5))))))
(assert (forall ((?v0 S11) (?v1 S5) (?v2 S5)) (not (= (f16 f42 ?v0) (f10 (f14 f15 ?v1) ?v2)))))
(assert (forall ((?v0 S5) (?v1 S5) (?v2 S11)) (not (= (f10 (f14 f15 ?v0) ?v1) (f16 f42 ?v2)))))
(assert (forall ((?v0 S11) (?v1 S11) (?v2 S5)) (not (= (f16 f42 ?v0) (f10 (f11 f12 ?v1) ?v2)))))
(assert (forall ((?v0 S11) (?v1 S5) (?v2 S11)) (not (= (f10 (f11 f12 ?v0) ?v1) (f16 f42 ?v2)))))
(assert (forall ((?v0 S11) (?v1 S5) (?v2 S5) (?v3 S5)) (not (= (f10 (f11 f12 ?v0) ?v1) (f10 (f14 f15 ?v2) ?v3)))))
(assert (forall ((?v0 S5) (?v1 S5) (?v2 S11) (?v3 S5)) (not (= (f10 (f14 f15 ?v0) ?v1) (f10 (f11 f12 ?v2) ?v3)))))
(assert (forall ((?v0 S11) (?v1 S11)) (not (= (f16 f42 ?v0) (f16 f17 ?v1)))))
(assert (forall ((?v0 S11) (?v1 S11)) (not (= (f16 f17 ?v0) (f16 f42 ?v1)))))
(assert (forall ((?v0 S11) (?v1 S5) (?v2 S5)) (not (= (f16 f17 ?v0) (f10 (f14 f15 ?v1) ?v2)))))
(assert (forall ((?v0 S5) (?v1 S5) (?v2 S11)) (not (= (f10 (f14 f15 ?v0) ?v1) (f16 f17 ?v2)))))
(assert (forall ((?v0 S11) (?v1 S11) (?v2 S5)) (not (= (f16 f17 ?v0) (f10 (f11 f12 ?v1) ?v2)))))
(assert (forall ((?v0 S14) (?v1 S7) (?v2 S7) (?v3 S11) (?v4 S11) (?v5 S11) (?v6 S5)) (let ((?v_2 (f16 f17 ?v4)) (?v_0 (f19 ?v0)) (?v_1 (f14 f15 (f16 f17 ?v5))) (?v_3 (f16 f42 ?v3))) (=> (= (f52 ?v0) f1) (=> (= (f3 (f4 (f5 (f6 f7 ?v1) ?v2) (f10 (f11 f12 ?v3) ?v_2)) ?v_0) f1) (=> (= (f3 (f4 (f5 (f6 f7 f34) ?v2) (f10 (f11 f12 (f36 f37 ?v2)) (f10 ?v_1 (f10 (f14 f15 (f39 f40 ?v1)) (f10 (f14 f15 ?v_3) ?v6))))) ?v_0) f1) (= (f52 (f20 (f21 f22 (f4 (f5 f55 f56) (f10 ?v_1 (f10 (f14 f15 ?v_2) ?v_3)))) ?v0)) f1)))))))
(assert (forall ((?v0 S14) (?v1 S7) (?v2 S7) (?v3 S11) (?v4 S11) (?v5 S11) (?v6 S5)) (let ((?v_2 (f16 f17 ?v4)) (?v_0 (f19 ?v0)) (?v_1 (f14 f15 (f16 f17 ?v5))) (?v_3 (f16 f42 ?v3))) (=> (= (f53 ?v0 f54) f1) (=> (= (f3 (f4 (f5 (f6 f7 ?v1) ?v2) (f10 (f11 f12 ?v3) ?v_2)) ?v_0) f1) (=> (= (f3 (f4 (f5 (f6 f7 f34) ?v2) (f10 (f11 f12 (f36 f37 ?v2)) (f10 ?v_1 (f10 (f14 f15 (f39 f40 ?v1)) (f10 (f14 f15 ?v_3) ?v6))))) ?v_0) f1) (= (f53 (f20 (f21 f22 (f4 (f5 f55 f56) (f10 ?v_1 (f10 (f14 f15 ?v_2) ?v_3)))) ?v0) f54) f1)))))))
(assert (forall ((?v0 S22) (?v1 S23)) (not (= f57 (f58 (f59 f60 ?v0) ?v1)))))
(assert (forall ((?v0 S26) (?v1 S22)) (not (= f61 (f62 (f63 f64 ?v0) ?v1)))))
(assert (forall ((?v0 S2) (?v1 S14)) (not (= f47 (f20 (f21 f22 ?v0) ?v1)))))
(assert (forall ((?v0 S5) (?v1 S29)) (not (= f65 (f66 (f67 f68 ?v0) ?v1)))))
(assert (forall ((?v0 S11) (?v1 S32)) (not (= f69 (f70 (f71 f72 ?v0) ?v1)))))
(assert (forall ((?v0 S14) (?v1 S35)) (not (= f73 (f74 (f75 f76 ?v0) ?v1)))))
(assert (forall ((?v0 S7) (?v1 S38)) (not (= f77 (f78 (f79 f80 ?v0) ?v1)))))
(assert (forall ((?v0 S22) (?v1 S23)) (not (= (f58 (f59 f60 ?v0) ?v1) f57))))
(assert (forall ((?v0 S26) (?v1 S22)) (not (= (f62 (f63 f64 ?v0) ?v1) f61))))
(assert (forall ((?v0 S2) (?v1 S14)) (not (= (f20 (f21 f22 ?v0) ?v1) f47))))
(assert (forall ((?v0 S5) (?v1 S29)) (not (= (f66 (f67 f68 ?v0) ?v1) f65))))
(assert (forall ((?v0 S11) (?v1 S32)) (not (= (f70 (f71 f72 ?v0) ?v1) f69))))
(assert (forall ((?v0 S14) (?v1 S35)) (not (= (f74 (f75 f76 ?v0) ?v1) f73))))
(assert (forall ((?v0 S7) (?v1 S38)) (not (= (f78 (f79 f80 ?v0) ?v1) f77))))
(assert (forall ((?v0 S2) (?v1 S2) (?v2 S14)) (=> (= (f3 ?v0 (f19 (f20 (f21 f22 ?v1) ?v2))) f1) (or (= ?v0 ?v1) (= (f3 ?v0 (f19 ?v2)) f1)))))
(assert (forall ((?v0 S7) (?v1 S7) (?v2 S38)) (=> (= (f81 ?v0 (f82 (f78 (f79 f80 ?v1) ?v2))) f1) (or (= ?v0 ?v1) (= (f81 ?v0 (f82 ?v2)) f1)))))
(assert (forall ((?v0 S14) (?v1 S14) (?v2 S35)) (=> (= (f53 ?v0 (f83 (f74 (f75 f76 ?v1) ?v2))) f1) (or (= ?v0 ?v1) (= (f53 ?v0 (f83 ?v2)) f1)))))
(assert (forall ((?v0 S11) (?v1 S11) (?v2 S32)) (=> (= (f50 ?v0 (f84 (f70 (f71 f72 ?v1) ?v2))) f1) (or (= ?v0 ?v1) (= (f50 ?v0 (f84 ?v2)) f1)))))
(assert (forall ((?v0 S5) (?v1 S5) (?v2 S29)) (=> (= (f48 ?v0 (f85 (f66 (f67 f68 ?v1) ?v2))) f1) (or (= ?v0 ?v1) (= (f48 ?v0 (f85 ?v2)) f1)))))
(assert (forall ((?v0 S26) (?v1 S26) (?v2 S22)) (=> (= (f86 ?v0 (f87 (f62 (f63 f64 ?v1) ?v2))) f1) (or (= ?v0 ?v1) (= (f86 ?v0 (f87 ?v2)) f1)))))
(assert (forall ((?v0 S22) (?v1 S22) (?v2 S23)) (=> (= (f88 ?v0 (f89 (f58 (f59 f60 ?v1) ?v2))) f1) (or (= ?v0 ?v1) (= (f88 ?v0 (f89 ?v2)) f1)))))
(assert (forall ((?v0 S7)) (= (f48 (f16 f42 (f36 f37 ?v0)) (f90 ?v0)) f1)))
(assert (forall ((?v0 S19) (?v1 S5) (?v2 S11)) (let ((?v_0 (f92 ?v0))) (=> (= (f91 ?v_0 ?v1) f1) (=> (= (f91 ?v0 (f16 f42 ?v2)) f1) (= (f91 ?v_0 (f10 (f11 f12 ?v2) ?v1)) f1))))))
(assert (forall ((?v0 S19) (?v1 S5)) (=> (= (f91 ?v0 ?v1) f1) (= (f91 (f92 ?v0) ?v1) f1))))
(assert (forall ((?v0 S19) (?v1 S5) (?v2 S5)) (let ((?v_0 (f92 ?v0))) (=> (= (f91 ?v_0 ?v1) f1) (=> (= (f91 ?v_0 ?v2) f1) (= (f91 ?v_0 (f10 (f14 f15 ?v1) ?v2)) f1))))))
(assert (forall ((?v0 S19) (?v1 S7)) (= (f91 (f92 ?v0) (f39 f40 ?v1)) f1)))
(assert (forall ((?v0 S7) (?v1 S5) (?v2 S7) (?v3 S5)) (= (= (f4 (f5 f55 ?v0) ?v1) (f4 (f5 f55 ?v2) ?v3)) (and (= ?v0 ?v2) (= ?v1 ?v3)))))
(assert (not (= f34 f56)))
(assert (not (= f56 f34)))
(assert (forall ((?v0 S7) (?v1 S7) (?v2 S5) (?v3 S7) (?v4 S5)) (not (= (f4 (f5 (f6 f7 ?v0) ?v1) ?v2) (f4 (f5 f55 ?v3) ?v4)))))
(assert (forall ((?v0 S7) (?v1 S5) (?v2 S7) (?v3 S7) (?v4 S5)) (not (= (f4 (f5 f55 ?v0) ?v1) (f4 (f5 (f6 f7 ?v2) ?v3) ?v4)))))
(assert (forall ((?v0 S7) (?v1 S5) (?v2 S14)) (=> (= (f3 (f4 (f5 f55 ?v0) ?v1) (f19 ?v2)) f1) (= (f48 ?v1 (f49 ?v2)) f1))))
(assert (forall ((?v0 S26) (?v1 S22) (?v2 S26) (?v3 S22)) (= (= (f62 (f63 f64 ?v0) ?v1) (f62 (f63 f64 ?v2) ?v3)) (and (= ?v0 ?v2) (= ?v1 ?v3)))))
(assert (forall ((?v0 S22) (?v1 S23) (?v2 S22) (?v3 S23)) (= (= (f58 (f59 f60 ?v0) ?v1) (f58 (f59 f60 ?v2) ?v3)) (and (= ?v0 ?v2) (= ?v1 ?v3)))))
(assert (forall ((?v0 S2) (?v1 S14) (?v2 S2) (?v3 S14)) (= (= (f20 (f21 f22 ?v0) ?v1) (f20 (f21 f22 ?v2) ?v3)) (and (= ?v0 ?v2) (= ?v1 ?v3)))))
(assert (forall ((?v0 S5) (?v1 S29) (?v2 S5) (?v3 S29)) (= (= (f66 (f67 f68 ?v0) ?v1) (f66 (f67 f68 ?v2) ?v3)) (and (= ?v0 ?v2) (= ?v1 ?v3)))))
(assert (forall ((?v0 S11) (?v1 S32) (?v2 S11) (?v3 S32)) (= (= (f70 (f71 f72 ?v0) ?v1) (f70 (f71 f72 ?v2) ?v3)) (and (= ?v0 ?v2) (= ?v1 ?v3)))))
(assert (forall ((?v0 S14) (?v1 S35) (?v2 S14) (?v3 S35)) (= (= (f74 (f75 f76 ?v0) ?v1) (f74 (f75 f76 ?v2) ?v3)) (and (= ?v0 ?v2) (= ?v1 ?v3)))))
(assert (forall ((?v0 S7) (?v1 S38) (?v2 S7) (?v3 S38)) (= (= (f78 (f79 f80 ?v0) ?v1) (f78 (f79 f80 ?v2) ?v3)) (and (= ?v0 ?v2) (= ?v1 ?v3)))))
(assert (forall ((?v0 S26) (?v1 S22)) (not (= (f62 (f63 f64 ?v0) ?v1) ?v1))))
(assert (forall ((?v0 S22) (?v1 S23)) (not (= (f58 (f59 f60 ?v0) ?v1) ?v1))))
(assert (forall ((?v0 S2) (?v1 S14)) (not (= (f20 (f21 f22 ?v0) ?v1) ?v1))))
(assert (forall ((?v0 S5) (?v1 S29)) (not (= (f66 (f67 f68 ?v0) ?v1) ?v1))))
(assert (forall ((?v0 S11) (?v1 S32)) (not (= (f70 (f71 f72 ?v0) ?v1) ?v1))))
(assert (forall ((?v0 S14) (?v1 S35)) (not (= (f74 (f75 f76 ?v0) ?v1) ?v1))))
(assert (forall ((?v0 S7) (?v1 S38)) (not (= (f78 (f79 f80 ?v0) ?v1) ?v1))))
(assert (forall ((?v0 S22) (?v1 S26)) (not (= ?v0 (f62 (f63 f64 ?v1) ?v0)))))
(assert (forall ((?v0 S23) (?v1 S22)) (not (= ?v0 (f58 (f59 f60 ?v1) ?v0)))))
(assert (forall ((?v0 S14) (?v1 S2)) (not (= ?v0 (f20 (f21 f22 ?v1) ?v0)))))
(assert (forall ((?v0 S29) (?v1 S5)) (not (= ?v0 (f66 (f67 f68 ?v1) ?v0)))))
(assert (forall ((?v0 S32) (?v1 S11)) (not (= ?v0 (f70 (f71 f72 ?v1) ?v0)))))
(assert (forall ((?v0 S35) (?v1 S14)) (not (= ?v0 (f74 (f75 f76 ?v1) ?v0)))))
(assert (forall ((?v0 S38) (?v1 S7)) (not (= ?v0 (f78 (f79 f80 ?v1) ?v0)))))
(assert (forall ((?v0 S23)) (=> (=> (= ?v0 f57) false) (=> (forall ((?v1 S22) (?v2 S23)) (=> (= ?v0 (f58 (f59 f60 ?v1) ?v2)) false)) false))))
(assert (forall ((?v0 S22)) (=> (=> (= ?v0 f61) false) (=> (forall ((?v1 S26) (?v2 S22)) (=> (= ?v0 (f62 (f63 f64 ?v1) ?v2)) false)) false))))
(assert (forall ((?v0 S14)) (=> (=> (= ?v0 f47) false) (=> (forall ((?v1 S2) (?v2 S14)) (=> (= ?v0 (f20 (f21 f22 ?v1) ?v2)) false)) false))))
(assert (forall ((?v0 S29)) (=> (=> (= ?v0 f65) false) (=> (forall ((?v1 S5) (?v2 S29)) (=> (= ?v0 (f66 (f67 f68 ?v1) ?v2)) false)) false))))
(assert (forall ((?v0 S32)) (=> (=> (= ?v0 f69) false) (=> (forall ((?v1 S11) (?v2 S32)) (=> (= ?v0 (f70 (f71 f72 ?v1) ?v2)) false)) false))))
(assert (forall ((?v0 S35)) (=> (=> (= ?v0 f73) false) (=> (forall ((?v1 S14) (?v2 S35)) (=> (= ?v0 (f74 (f75 f76 ?v1) ?v2)) false)) false))))
(assert (forall ((?v0 S38)) (=> (=> (= ?v0 f77) false) (=> (forall ((?v1 S7) (?v2 S38)) (=> (= ?v0 (f78 (f79 f80 ?v1) ?v2)) false)) false))))
(assert (forall ((?v0 S7) (?v1 S41)) (= (= (f81 ?v0 ?v1) f1) (= (f93 ?v1 ?v0) f1))))
(assert (forall ((?v0 S14) (?v1 S21)) (= (= (f53 ?v0 ?v1) f1) (= (f94 ?v1 ?v0) f1))))
(assert (forall ((?v0 S11) (?v1 S20)) (= (= (f50 ?v0 ?v1) f1) (= (f95 ?v1 ?v0) f1))))
(assert (forall ((?v0 S5) (?v1 S19)) (= (= (f48 ?v0 ?v1) f1) (= (f91 ?v1 ?v0) f1))))
(assert (forall ((?v0 S2) (?v1 S3)) (= (= (f3 ?v0 ?v1) f1) (= (f96 ?v1 ?v0) f1))))
(assert (forall ((?v0 S22) (?v1 S43)) (= (= (f88 ?v0 ?v1) f1) (= (f97 ?v1 ?v0) f1))))
(assert (forall ((?v0 S26) (?v1 S42)) (= (= (f86 ?v0 ?v1) f1) (= (f98 ?v1 ?v0) f1))))
(assert (forall ((?v0 S23)) (= (not (= ?v0 f57)) (exists ((?v1 S22) (?v2 S23)) (= ?v0 (f58 (f59 f60 ?v1) ?v2))))))
(assert (forall ((?v0 S22)) (= (not (= ?v0 f61)) (exists ((?v1 S26) (?v2 S22)) (= ?v0 (f62 (f63 f64 ?v1) ?v2))))))
(assert (forall ((?v0 S14)) (= (not (= ?v0 f47)) (exists ((?v1 S2) (?v2 S14)) (= ?v0 (f20 (f21 f22 ?v1) ?v2))))))
(assert (forall ((?v0 S29)) (= (not (= ?v0 f65)) (exists ((?v1 S5) (?v2 S29)) (= ?v0 (f66 (f67 f68 ?v1) ?v2))))))
(assert (forall ((?v0 S32)) (= (not (= ?v0 f69)) (exists ((?v1 S11) (?v2 S32)) (= ?v0 (f70 (f71 f72 ?v1) ?v2))))))
(assert (forall ((?v0 S35)) (= (not (= ?v0 f73)) (exists ((?v1 S14) (?v2 S35)) (= ?v0 (f74 (f75 f76 ?v1) ?v2))))))
(assert (forall ((?v0 S38)) (= (not (= ?v0 f77)) (exists ((?v1 S7) (?v2 S38)) (= ?v0 (f78 (f79 f80 ?v1) ?v2))))))
(assert (forall ((?v0 S22) (?v1 S23)) (let ((?v_0 (f58 (f59 f60 ?v0) ?v1))) (= (f58 (f99 f100 ?v_0) f57) ?v_0))))
(assert (forall ((?v0 S26) (?v1 S22)) (let ((?v_0 (f62 (f63 f64 ?v0) ?v1))) (= (f62 (f101 f102 ?v_0) f61) ?v_0))))
(assert (forall ((?v0 S2) (?v1 S14)) (let ((?v_0 (f20 (f21 f22 ?v0) ?v1))) (= (f20 (f103 f104 ?v_0) f47) ?v_0))))
(assert (forall ((?v0 S5) (?v1 S29)) (let ((?v_0 (f66 (f67 f68 ?v0) ?v1))) (= (f66 (f105 f106 ?v_0) f65) ?v_0))))
(assert (forall ((?v0 S11) (?v1 S32)) (let ((?v_0 (f70 (f71 f72 ?v0) ?v1))) (= (f70 (f107 f108 ?v_0) f69) ?v_0))))
(assert (forall ((?v0 S14) (?v1 S35)) (let ((?v_0 (f74 (f75 f76 ?v0) ?v1))) (= (f74 (f109 f110 ?v_0) f73) ?v_0))))
(assert (forall ((?v0 S7) (?v1 S38)) (let ((?v_0 (f78 (f79 f80 ?v0) ?v1))) (= (f78 (f111 f112 ?v_0) f77) ?v_0))))
(assert (forall ((?v0 S26) (?v1 S22) (?v2 S26) (?v3 S22)) (let ((?v_0 (f63 f64 ?v0)) (?v_1 (f63 f64 ?v2))) (= (f62 (f101 f102 (f62 ?v_0 ?v1)) (f62 ?v_1 ?v3)) (f62 ?v_0 (f62 ?v_1 (f62 (f101 f102 ?v1) ?v3)))))))
(assert (forall ((?v0 S22) (?v1 S23) (?v2 S22) (?v3 S23)) (let ((?v_0 (f59 f60 ?v0)) (?v_1 (f59 f60 ?v2))) (= (f58 (f99 f100 (f58 ?v_0 ?v1)) (f58 ?v_1 ?v3)) (f58 ?v_0 (f58 ?v_1 (f58 (f99 f100 ?v1) ?v3)))))))
(assert (forall ((?v0 S2) (?v1 S14) (?v2 S2) (?v3 S14)) (let ((?v_0 (f21 f22 ?v0)) (?v_1 (f21 f22 ?v2))) (= (f20 (f103 f104 (f20 ?v_0 ?v1)) (f20 ?v_1 ?v3)) (f20 ?v_0 (f20 ?v_1 (f20 (f103 f104 ?v1) ?v3)))))))
(assert (forall ((?v0 S5) (?v1 S29) (?v2 S5) (?v3 S29)) (let ((?v_0 (f67 f68 ?v0)) (?v_1 (f67 f68 ?v2))) (= (f66 (f105 f106 (f66 ?v_0 ?v1)) (f66 ?v_1 ?v3)) (f66 ?v_0 (f66 ?v_1 (f66 (f105 f106 ?v1) ?v3)))))))
(assert (forall ((?v0 S11) (?v1 S32) (?v2 S11) (?v3 S32)) (let ((?v_0 (f71 f72 ?v0)) (?v_1 (f71 f72 ?v2))) (= (f70 (f107 f108 (f70 ?v_0 ?v1)) (f70 ?v_1 ?v3)) (f70 ?v_0 (f70 ?v_1 (f70 (f107 f108 ?v1) ?v3)))))))
(assert (forall ((?v0 S14) (?v1 S35) (?v2 S14) (?v3 S35)) (let ((?v_0 (f75 f76 ?v0)) (?v_1 (f75 f76 ?v2))) (= (f74 (f109 f110 (f74 ?v_0 ?v1)) (f74 ?v_1 ?v3)) (f74 ?v_0 (f74 ?v_1 (f74 (f109 f110 ?v1) ?v3)))))))
(assert (forall ((?v0 S7) (?v1 S38) (?v2 S7) (?v3 S38)) (let ((?v_0 (f79 f80 ?v0)) (?v_1 (f79 f80 ?v2))) (= (f78 (f111 f112 (f78 ?v_0 ?v1)) (f78 ?v_1 ?v3)) (f78 ?v_0 (f78 ?v_1 (f78 (f111 f112 ?v1) ?v3)))))))
(assert (forall ((?v0 S23)) (= (f58 (f99 f100 f57) ?v0) ?v0)))
(assert (forall ((?v0 S22)) (= (f62 (f101 f102 f61) ?v0) ?v0)))
(assert (forall ((?v0 S14)) (= (f20 (f103 f104 f47) ?v0) ?v0)))
(assert (forall ((?v0 S38)) (= (f78 (f111 f112 f77) ?v0) ?v0)))
(assert (forall ((?v0 S35)) (= (f74 (f109 f110 f73) ?v0) ?v0)))
(assert (forall ((?v0 S32)) (= (f70 (f107 f108 f69) ?v0) ?v0)))
(assert (forall ((?v0 S29)) (= (f66 (f105 f106 f65) ?v0) ?v0)))
(assert (forall ((?v0 S23)) (= (f58 (f99 f100 ?v0) f57) ?v0)))
(assert (forall ((?v0 S22)) (= (f62 (f101 f102 ?v0) f61) ?v0)))
(assert (forall ((?v0 S14)) (= (f20 (f103 f104 ?v0) f47) ?v0)))
(assert (forall ((?v0 S38)) (= (f78 (f111 f112 ?v0) f77) ?v0)))
(assert (forall ((?v0 S35)) (= (f74 (f109 f110 ?v0) f73) ?v0)))
(assert (forall ((?v0 S32)) (= (f70 (f107 f108 ?v0) f69) ?v0)))
(assert (forall ((?v0 S29)) (= (f66 (f105 f106 ?v0) f65) ?v0)))
(assert (forall ((?v0 S22)) (= (f58 (f59 f113 ?v0) f57) (f58 (f59 f60 ?v0) f57))))
(assert (forall ((?v0 S26)) (= (f62 (f63 f114 ?v0) f61) (f62 (f63 f64 ?v0) f61))))
(assert (forall ((?v0 S2)) (= (f20 (f21 f115 ?v0) f47) (f20 (f21 f22 ?v0) f47))))
(assert (forall ((?v0 S5)) (= (f66 (f67 f116 ?v0) f65) (f66 (f67 f68 ?v0) f65))))
(assert (forall ((?v0 S11)) (= (f70 (f71 f117 ?v0) f69) (f70 (f71 f72 ?v0) f69))))
(assert (forall ((?v0 S14)) (= (f74 (f75 f118 ?v0) f73) (f74 (f75 f76 ?v0) f73))))
(assert (forall ((?v0 S7)) (= (f78 (f79 f119 ?v0) f77) (f78 (f79 f80 ?v0) f77))))
(assert (forall ((?v0 S2) (?v1 S14)) (= (f20 (f21 f115 ?v0) ?v1) (ite (= (f3 ?v0 (f19 ?v1)) f1) ?v1 (f20 (f21 f22 ?v0) ?v1)))))
(assert (forall ((?v0 S7) (?v1 S38)) (= (f78 (f79 f119 ?v0) ?v1) (ite (= (f81 ?v0 (f82 ?v1)) f1) ?v1 (f78 (f79 f80 ?v0) ?v1)))))
(assert (forall ((?v0 S14) (?v1 S35)) (= (f74 (f75 f118 ?v0) ?v1) (ite (= (f53 ?v0 (f83 ?v1)) f1) ?v1 (f74 (f75 f76 ?v0) ?v1)))))
(assert (forall ((?v0 S11) (?v1 S32)) (= (f70 (f71 f117 ?v0) ?v1) (ite (= (f50 ?v0 (f84 ?v1)) f1) ?v1 (f70 (f71 f72 ?v0) ?v1)))))
(assert (forall ((?v0 S5) (?v1 S29)) (= (f66 (f67 f116 ?v0) ?v1) (ite (= (f48 ?v0 (f85 ?v1)) f1) ?v1 (f66 (f67 f68 ?v0) ?v1)))))
(assert (forall ((?v0 S26) (?v1 S22)) (= (f62 (f63 f114 ?v0) ?v1) (ite (= (f86 ?v0 (f87 ?v1)) f1) ?v1 (f62 (f63 f64 ?v0) ?v1)))))
(assert (forall ((?v0 S22) (?v1 S23)) (= (f58 (f59 f113 ?v0) ?v1) (ite (= (f88 ?v0 (f89 ?v1)) f1) ?v1 (f58 (f59 f60 ?v0) ?v1)))))
(assert (forall ((?v0 S2) (?v1 S14)) (=> (not (= (f3 ?v0 (f19 ?v1)) f1)) (= (f20 (f21 f115 ?v0) ?v1) (f20 (f21 f22 ?v0) ?v1)))))
(assert (forall ((?v0 S7) (?v1 S38)) (=> (not (= (f81 ?v0 (f82 ?v1)) f1)) (= (f78 (f79 f119 ?v0) ?v1) (f78 (f79 f80 ?v0) ?v1)))))
(assert (forall ((?v0 S14) (?v1 S35)) (=> (not (= (f53 ?v0 (f83 ?v1)) f1)) (= (f74 (f75 f118 ?v0) ?v1) (f74 (f75 f76 ?v0) ?v1)))))
(assert (forall ((?v0 S11) (?v1 S32)) (=> (not (= (f50 ?v0 (f84 ?v1)) f1)) (= (f70 (f71 f117 ?v0) ?v1) (f70 (f71 f72 ?v0) ?v1)))))
(assert (forall ((?v0 S5) (?v1 S29)) (=> (not (= (f48 ?v0 (f85 ?v1)) f1)) (= (f66 (f67 f116 ?v0) ?v1) (f66 (f67 f68 ?v0) ?v1)))))
(assert (forall ((?v0 S26) (?v1 S22)) (=> (not (= (f86 ?v0 (f87 ?v1)) f1)) (= (f62 (f63 f114 ?v0) ?v1) (f62 (f63 f64 ?v0) ?v1)))))
(assert (forall ((?v0 S22) (?v1 S23)) (=> (not (= (f88 ?v0 (f89 ?v1)) f1)) (= (f58 (f59 f113 ?v0) ?v1) (f58 (f59 f60 ?v0) ?v1)))))
(assert (forall ((?v0 S23) (?v1 S51)) (=> (not (= ?v0 f57)) (=> (forall ((?v2 S22)) (= (f120 ?v1 (f58 (f59 f60 ?v2) f57)) f1)) (=> (forall ((?v2 S22) (?v3 S23)) (=> (not (= ?v3 f57)) (=> (= (f120 ?v1 ?v3) f1) (= (f120 ?v1 (f58 (f59 f60 ?v2) ?v3)) f1)))) (= (f120 ?v1 ?v0) f1))))))
(assert (forall ((?v0 S22) (?v1 S43)) (=> (not (= ?v0 f61)) (=> (forall ((?v2 S26)) (= (f97 ?v1 (f62 (f63 f64 ?v2) f61)) f1)) (=> (forall ((?v2 S26) (?v3 S22)) (=> (not (= ?v3 f61)) (=> (= (f97 ?v1 ?v3) f1) (= (f97 ?v1 (f62 (f63 f64 ?v2) ?v3)) f1)))) (= (f97 ?v1 ?v0) f1))))))
(assert (forall ((?v0 S14) (?v1 S21)) (=> (not (= ?v0 f47)) (=> (forall ((?v2 S2)) (= (f94 ?v1 (f20 (f21 f22 ?v2) f47)) f1)) (=> (forall ((?v2 S2) (?v3 S14)) (=> (not (= ?v3 f47)) (=> (= (f94 ?v1 ?v3) f1) (= (f94 ?v1 (f20 (f21 f22 ?v2) ?v3)) f1)))) (= (f94 ?v1 ?v0) f1))))))
(assert (forall ((?v0 S29) (?v1 S52)) (=> (not (= ?v0 f65)) (=> (forall ((?v2 S5)) (= (f121 ?v1 (f66 (f67 f68 ?v2) f65)) f1)) (=> (forall ((?v2 S5) (?v3 S29)) (=> (not (= ?v3 f65)) (=> (= (f121 ?v1 ?v3) f1) (= (f121 ?v1 (f66 (f67 f68 ?v2) ?v3)) f1)))) (= (f121 ?v1 ?v0) f1))))))
(assert (forall ((?v0 S32) (?v1 S53)) (=> (not (= ?v0 f69)) (=> (forall ((?v2 S11)) (= (f122 ?v1 (f70 (f71 f72 ?v2) f69)) f1)) (=> (forall ((?v2 S11) (?v3 S32)) (=> (not (= ?v3 f69)) (=> (= (f122 ?v1 ?v3) f1) (= (f122 ?v1 (f70 (f71 f72 ?v2) ?v3)) f1)))) (= (f122 ?v1 ?v0) f1))))))
(assert (forall ((?v0 S35) (?v1 S54)) (=> (not (= ?v0 f73)) (=> (forall ((?v2 S14)) (= (f123 ?v1 (f74 (f75 f76 ?v2) f73)) f1)) (=> (forall ((?v2 S14) (?v3 S35)) (=> (not (= ?v3 f73)) (=> (= (f123 ?v1 ?v3) f1) (= (f123 ?v1 (f74 (f75 f76 ?v2) ?v3)) f1)))) (= (f123 ?v1 ?v0) f1))))))
(assert (forall ((?v0 S38) (?v1 S55)) (=> (not (= ?v0 f77)) (=> (forall ((?v2 S7)) (= (f124 ?v1 (f78 (f79 f80 ?v2) f77)) f1)) (=> (forall ((?v2 S7) (?v3 S38)) (=> (not (= ?v3 f77)) (=> (= (f124 ?v1 ?v3) f1) (= (f124 ?v1 (f78 (f79 f80 ?v2) ?v3)) f1)))) (= (f124 ?v1 ?v0) f1))))))
(assert (forall ((?v0 S5) (?v1 S14)) (=> (= (f48 ?v0 (f125 (f126 f56) ?v1)) f1) (exists ((?v2 S7) (?v3 S7)) (let ((?v_0 (f19 ?v1))) (or (= (f3 (f4 (f5 (f6 f7 ?v2) ?v3) ?v0) ?v_0) f1) (or (= (f3 (f4 (f5 f55 ?v2) ?v0) ?v_0) f1) (= (f48 ?v0 (f90 f56)) f1))))))))
(assert (forall ((?v0 S7) (?v1 S14)) (= (f48 (f16 f42 (f36 f37 ?v0)) (f125 (f126 ?v0) ?v1)) f1)))
(assert (forall ((?v0 S7) (?v1 S7) (?v2 S5) (?v3 S14)) (=> (= (f3 (f4 (f5 (f6 f7 ?v0) ?v1) ?v2) (f19 ?v3)) f1) (= (f48 ?v2 (f125 (f126 ?v0) ?v3)) f1))))
(assert (forall ((?v0 S2) (?v1 S14)) (=> (= (f3 ?v0 (f19 ?v1)) f1) (= (f20 (f21 f115 ?v0) ?v1) ?v1))))
(assert (forall ((?v0 S7) (?v1 S38)) (=> (= (f81 ?v0 (f82 ?v1)) f1) (= (f78 (f79 f119 ?v0) ?v1) ?v1))))
(assert (forall ((?v0 S14) (?v1 S35)) (=> (= (f53 ?v0 (f83 ?v1)) f1) (= (f74 (f75 f118 ?v0) ?v1) ?v1))))
(assert (forall ((?v0 S11) (?v1 S32)) (=> (= (f50 ?v0 (f84 ?v1)) f1) (= (f70 (f71 f117 ?v0) ?v1) ?v1))))
(assert (forall ((?v0 S5) (?v1 S29)) (=> (= (f48 ?v0 (f85 ?v1)) f1) (= (f66 (f67 f116 ?v0) ?v1) ?v1))))
(assert (forall ((?v0 S22) (?v1 S23)) (=> (= (f88 ?v0 (f89 ?v1)) f1) (= (f58 (f59 f113 ?v0) ?v1) ?v1))))
(assert (forall ((?v0 S26) (?v1 S22)) (=> (= (f86 ?v0 (f87 ?v1)) f1) (= (f62 (f63 f114 ?v0) ?v1) ?v1))))
(assert (forall ((?v0 S7) (?v1 S5) (?v2 S14)) (=> (= (f3 (f4 (f5 f55 ?v0) ?v1) (f19 ?v2)) f1) (= (f48 ?v1 (f125 (f126 ?v0) ?v2)) f1))))
(assert (forall ((?v0 S7)) (= (f125 (f126 ?v0) f47) (f90 ?v0))))
(assert (forall ((?v0 S7) (?v1 S7) (?v2 S5) (?v3 S14)) (=> (= (f3 (f4 (f5 (f6 f7 ?v0) ?v1) ?v2) (f19 ?v3)) f1) (= (f48 ?v2 (f125 (f126 f56) ?v3)) f1))))
(assert (forall ((?v0 S7) (?v1 S14)) (=> (= (f81 ?v0 f127) f1) (= (f48 (f16 f42 (f36 f37 ?v0)) (f125 (f126 f56) ?v1)) f1))))
(assert (forall ((?v0 S7) (?v1 S5) (?v2 S14)) (=> (= (f3 (f4 (f5 f55 ?v0) ?v1) (f19 ?v2)) f1) (=> (= (f81 ?v0 f127) f1) (= (f48 ?v1 (f125 (f126 f56) ?v2)) f1)))))
(assert (forall ((?v0 S5) (?v1 S7) (?v2 S14)) (=> (= (f48 ?v0 (f125 (f126 ?v1) ?v2)) f1) (=> (not (= ?v1 f56)) (exists ((?v3 S7)) (let ((?v_0 (f19 ?v2))) (or (= (f3 (f4 (f5 (f6 f7 ?v1) ?v3) ?v0) ?v_0) f1) (or (= (f3 (f4 (f5 f128 ?v1) ?v0) ?v_0) f1) (or (= (f3 (f4 (f5 f55 ?v1) ?v0) ?v_0) f1) (= (f48 ?v0 (f90 ?v1)) f1))))))))))
(assert (forall ((?v0 S7) (?v1 S5) (?v2 S14)) (=> (not (= ?v0 f56)) (=> (= (f3 (f4 (f5 f128 ?v0) ?v1) (f19 ?v2)) f1) (= (f48 ?v1 (f125 (f126 ?v0) ?v2)) f1)))))
(assert (forall ((?v0 S7) (?v1 S5) (?v2 S14)) (let ((?v_0 (f126 f56))) (= (f125 ?v_0 (f20 (f21 f22 (f4 (f5 f128 ?v0) ?v1)) ?v2)) (f125 ?v_0 ?v2)))))
(assert (= (f81 f56 f127) f1))
(assert (forall ((?v0 S7) (?v1 S5) (?v2 S7) (?v3 S5)) (= (= (f4 (f5 f128 ?v0) ?v1) (f4 (f5 f128 ?v2) ?v3)) (and (= ?v0 ?v2) (= ?v1 ?v3)))))
(assert (forall ((?v0 S7) (?v1 S5) (?v2 S7) (?v3 S7) (?v4 S5)) (not (= (f4 (f5 f128 ?v0) ?v1) (f4 (f5 (f6 f7 ?v2) ?v3) ?v4)))))
(assert (forall ((?v0 S7) (?v1 S7) (?v2 S5) (?v3 S7) (?v4 S5)) (not (= (f4 (f5 (f6 f7 ?v0) ?v1) ?v2) (f4 (f5 f128 ?v3) ?v4)))))
(assert (forall ((?v0 S7) (?v1 S5) (?v2 S7) (?v3 S5)) (not (= (f4 (f5 f128 ?v0) ?v1) (f4 (f5 f55 ?v2) ?v3)))))
(assert (forall ((?v0 S7) (?v1 S5) (?v2 S7) (?v3 S5)) (not (= (f4 (f5 f55 ?v0) ?v1) (f4 (f5 f128 ?v2) ?v3)))))
(assert (not (= (f81 f34 f127) f1)))
(assert (forall ((?v0 S7) (?v1 S5) (?v2 S14)) (= (f49 (f20 (f21 f22 (f4 (f5 f128 ?v0) ?v1)) ?v2)) (f49 ?v2))))
(assert (forall ((?v0 S7) (?v1 S5) (?v2 S14)) (let ((?v_0 (f126 f56))) (let ((?v_1 (f125 ?v_0 ?v2))) (= (f125 ?v_0 (f20 (f21 f22 (f4 (f5 f55 ?v0) ?v1)) ?v2)) (ite (= (f81 ?v0 f127) f1) (f129 (f130 ?v1) ?v_1) ?v_1))))))
(assert (forall ((?v0 S7) (?v1 S5) (?v2 S14)) (let ((?v_0 (f131 (f125 (f126 f56) ?v2)))) (=> (= (f48 (f10 (f11 f12 (f36 f37 ?v0)) ?v1) ?v_0) f1) (=> (= (f81 ?v0 f127) f1) (= (f48 ?v1 ?v_0) f1))))))
(assert (forall ((?v0 S14) (?v1 S7) (?v2 S5)) (let ((?v_0 (f126 f56))) (= (f132 (f125 ?v_0 ?v0) (f125 ?v_0 (f20 (f21 f22 (f4 (f5 f128 ?v1) ?v2)) ?v0))) f1))))
(assert (forall ((?v0 S14) (?v1 S7) (?v2 S5)) (let ((?v_0 (f126 f56))) (= (f132 (f125 ?v_0 ?v0) (f125 ?v_0 (f20 (f21 f22 (f4 (f5 f55 ?v1) ?v2)) ?v0))) f1))))
(assert (forall ((?v0 S14) (?v1 S7) (?v2 S7) (?v3 S5)) (let ((?v_0 (f126 f56))) (= (f132 (f125 ?v_0 ?v0) (f125 ?v_0 (f20 (f21 f22 (f4 (f5 (f6 f7 ?v1) ?v2) ?v3)) ?v0))) f1))))
(assert (forall ((?v0 S5) (?v1 S19)) (=> (= (f48 ?v0 ?v1) f1) (= (f48 ?v0 (f131 ?v1)) f1))))
(assert (forall ((?v0 S5) (?v1 S5) (?v2 S19)) (let ((?v_0 (f131 ?v2))) (=> (= (f48 (f10 (f14 f15 ?v0) ?v1) ?v_0) f1) (=> (=> (= (f48 ?v0 ?v_0) f1) (=> (= (f48 ?v1 ?v_0) f1) false)) false)))))
(assert (forall ((?v0 S5) (?v1 S5) (?v2 S19)) (let ((?v_0 (f131 ?v2))) (=> (= (f48 (f10 (f14 f15 ?v0) ?v1) ?v_0) f1) (= (f48 ?v0 ?v_0) f1)))))
(check-sat)
(exit)
